(set-logic QF_S)
(declare-fun T_12 () Bool)
(declare-fun T_13 () Bool)
(declare-fun T_9d () Bool)
(declare-fun T_9e () Bool)
(declare-fun T_SELECT_4 () Bool)
(declare-fun T_SELECT_5 () Bool)
(declare-fun T_c () Bool)
(declare-fun T_e () Bool)
(declare-fun T_f () Bool)
(declare-fun I0_23 () Int)
(declare-fun I1_23 () Int)
(declare-fun I2_23 () Int)
(declare-fun PCTEMP_LHS_4 () Int)
(declare-fun PCTEMP_LHS_5 () Int)
(declare-fun T_10 () Int)
(declare-fun NEW_DGNode_432 () String)
(declare-fun NEW_DGNode_436 () String)
(declare-fun NEW_DGNode_440 () String)
(declare-fun NEW_DGNode_444 () String)
(declare-fun NEW_DGNode_448 () String)
(declare-fun NEW_DGNode_452 () String)
(declare-fun NEW_DGNode_456 () String)
(declare-fun NEW_DGNode_457 () String)
(declare-fun PCTEMP_LHS_6 () String)
(declare-fun T_97 () String)
(declare-fun T_98 () String)
(declare-fun T_99 () String)
(declare-fun T_9a () String)
(declare-fun T_9b () String)
(declare-fun T_9c () String)
(assert (= T_9c NEW_DGNode_456))
(assert (= NEW_DGNode_456 NEW_DGNode_457))
(assert (= NEW_DGNode_456 ""))
(assert (= NEW_DGNode_457 (str.++ T_9b NEW_DGNode_452)))
(assert (= T_9b (str.++ T_9a NEW_DGNode_448)))
(assert (= T_9a (str.++ T_99 NEW_DGNode_444)))
(assert (= T_99 (str.++ T_98 NEW_DGNode_440)))
(assert (= T_98 (str.++ T_97 NEW_DGNode_436)))
(assert (= T_97 (str.++ NEW_DGNode_432 PCTEMP_LHS_6)))
(assert (= NEW_DGNode_432 "__utmb="))
(assert (= PCTEMP_LHS_6 "-"))
(assert (= NEW_DGNode_436 ";"))
(assert (= NEW_DGNode_440 "/"))
(assert (= NEW_DGNode_444 ";"))
(assert (= NEW_DGNode_448 ""))
(assert (= NEW_DGNode_452 ""))
(assert T_9d)
(assert T_9e)
(assert (= T_9e (not T_9d)))
(assert (= T_SELECT_5 (not (= PCTEMP_LHS_5 (- 1)))))
(assert T_f)
(assert (= T_f (not T_e)))
(assert (= T_e (< PCTEMP_LHS_5 0)))
(assert (= T_SELECT_4 (not (= PCTEMP_LHS_4 (- 1)))))
(assert T_c)
(assert (= T_c (< (- 1) PCTEMP_LHS_4)))
(assert (= T_10 (+ PCTEMP_LHS_4 7)))
(assert (>= T_10 0))
(assert (>= PCTEMP_LHS_5 T_10))
(assert (= I2_23 I1_23))
(assert (<= PCTEMP_LHS_5 I1_23))
(assert (= I0_23 (- PCTEMP_LHS_5 T_10)))
(assert (= I0_23 (str.len PCTEMP_LHS_6))) ; len 0
(assert T_12)
(assert T_13)
(assert (= T_13 (not T_12)))
(check-sat)
